136
10000
1404
4048
2651
2126
2576
2622
563
3355
1928
4805
1606
712
1615
2342
80
2990
1305
669
1309
3055
536
2893
739
971
3617
248
1593
2720
1394
1385
2682
3935
385
4688
1557
4387
3721
3693
4193
490
2538
4246
3188
3104
3709
3946
4
2200
1193
1999
1360
3532
2475
4875
2845
684
974
1449
558
3989
4419
1002
2538
198
2141
1896
3539
1284
4058
612
4264
967
3565
1218
832
2505
3933
1393
2518
1083
2018
1237
2254
946
2054
40
4923
1670
1436
1171
4913
2332
2121
2290
2864
1386
4938
769
3465
1168
437
3697
3680
446
1899
692
4174
4001
3960
935
4236
2148
776
2709
2095
4757
1302
319
3918
94
1432
2094
1494
2036
1183
1439
1732
830
3387
503
4011
1350
2217
1432
4146
23
